119814
81,4,18,23,30,21,43,67,34,29,1,54,22,11,2,42,56,33,48,46,59,80,71,50,41,24,68,14,60,5,78,52,58,17,36,12,63,0,9,28,72,70,8,31,73,39,10,15,37,27,7,82,77,40,51,38,62,3,49,64,47,20,53,45,44,79,61,69,13,66,75,25,35,65,19,76,57,16,55,6,26,32,74,81